EA566  31.076  5.560  3.780 89.92 92.55 90.66 Sym.group:    1
1.0000
   31.075619     0.000000     0.000000
   -0.063755     5.559261     0.000000
   -0.168048     0.003106     3.776392
  Sr  Ti   O
  10   10   30 
Direct
    0.502758     0.264299     0.147520
    0.407343     0.759857     0.114121
    0.590327     0.772668     0.179569
    0.684779     0.274646     0.214107
    0.765767     0.778121     0.243726
    0.898371     0.291134     0.294599
    0.117665     0.243361     0.885231
    0.328668     0.252773     0.077492
    0.967054     0.771034     0.825074
    0.066801     0.741781     0.854587
    0.592237     0.272985     0.680268
    0.500522     0.764405     0.646783
    0.314424     0.751413     0.582709
    0.776428     0.280944     0.747550
    0.856540     0.779297     0.777167
    0.161704     0.744048     0.389551
    0.021028     0.264532     0.343357
    0.412517     0.260448     0.614320
    0.680615     0.774882     0.712568
    0.233466     0.249499     0.498615
    0.634825     0.534864     0.695825
    0.724223     0.520939     0.728516
    0.547203     0.014582     0.663842
    0.455739     0.512442     0.630270
    0.545436     0.513906     0.663179
    0.638472     0.032509     0.697156
    0.365489     0.504871     0.597290
    0.191219     0.039354     0.414573
    0.068686     0.057648     0.360324
    0.730749     0.013746     0.730859
    0.824053     0.049954     0.765046
    0.274034     0.030630     0.557399
    0.276502     0.457968     0.584736
    0.899946     0.560796     0.794595
    0.364965     0.009718     0.599311
    0.811913     0.575202     0.760137
    0.969770     0.099963     0.324989
    0.113699     0.549310     0.377849
    0.456335     0.015693     0.630298
    0.197530     0.484555     0.400274
    0.591530     0.270314     0.180016
    0.501221     0.766421     0.146990
    0.681682     0.780456     0.212945
    0.007694     0.585350     0.338260
    0.031391     0.289707     0.847040
    0.771968     0.281915     0.245901
    0.318492     0.753730     0.084092
    0.148297     0.808817     0.889539
    0.870841     0.848564     0.282341
    0.411013     0.258560     0.114055
