Starting structure
1.0000
   2.570000    0.000000    0.000000
   0.000000    4.853000    0.000000
   0.000000    0.000000    4.853000
  Si
   4 
Direct
    0.875000     0.000000     0.000000
    0.625000     0.000000     0.500000
    0.125000     0.500000     0.000000
    0.375000     0.500000     0.500000
