Starting structure
1.0000
 4.257976     0.000000     0.000000
 0.000000     4.257976     0.000000
 0.000000     0.000000     4.257976
Mg O
4 4
Direct
0.0 0.0 0.0
0.5 0.5 0.0
0.0 0.5 0.5
0.5 0.0 0.5
0.5 0.0 0.0
0.0 0.5 0.0
0.0 0.0 0.5
0.5 0.5 0.5
