&CONTROL
  calculation  = "relax",
  restart_mode = "from_scratch",
  prefix       = "pp",
  pseudo_dir   = "./",
  outdir       = "./",
  wf_collect   = false
  nstep = 35
  disk_io = 'none'
/
&SYSTEM
  ibrav     = 0 
  nat       = AAAA
  ntyp      = BBBB 
  ecutwfc   = 40.D0 
  nosym     = .true.
 occupations='smearing'
 degauss=0.02
 smearing='marzari-vanderbilt'
/
&ELECTRONS
  conv_thr    = 5.D-04,
  mixing_beta=0.5,
  electron_maxstep = 250
/
&IONS
  ion_dynamics='bfgs'
  trust_radius_max = 0.2
/
ATOMIC_SPECIES
C  12. C.pbe-van_bm.upf
