###################
#Pre-optimisation, constant-P
###################
%block ChemicalSpeciesLabel
1    6 C
%endblock ChemicalSpeciesLabel
PAO.BasisSize   SZ
MeshCutoff      40 Ry
PAO.EnergyShift 0.02 Ry
# DFT, Grid, SCF
XC.functional           GGA
XC.authors              PBE
DM.Tolerance            5.d-2
MD.maxCGDispl           0.3 Bohr
MD.MaxForceTol          5d-1 eV/Ang
# Relaxation, smearing, etc.
ElectronicTemperature   5 meV
MD.TypeOfRun            cg     # Type of dynamics
Optim.Broyden           .true.
MD.VariableCell         .false.
MD.ConstantVolume       .true.
MD.NumCGsteps           10
MD.TargetPressure       30.00000 GPa
