###################
#Pre-optimisation, constant-P
###################
%block ChemicalSpeciesLabel
1    6 C
%endblock ChemicalSpeciesLabel
PAO.BasisSize   DZ
MeshCutoff      60 Ry
PAO.EnergyShift 0.02 Ry
# DFT, Grid, SCF
XC.functional           GGA
XC.authors              PBE
DM.MixingWeight         0.150
DM.Tolerance            1.d-2
# Relaxation, smearing, etc.
ElectronicTemperature   5 meV
MD.TypeOfRun            cg     # Type of dynamics
Optim.Broyden           .true.
MD.VariableCell         .true.
MD.ConstantVolume       .true.
MD.MaxForceTol          1d-2 eV/Ang
MD.NumCGsteps           10
MD.TargetPressure       30.00000 GPa
