#CPQA INCLUDE ./nonscc_parameter
#CPQA INCLUDE ./uff_table
#CPQA INCLUDE ./nn
#CPQA INCLUDE ./cc
#CPQA INCLUDE ./cn
#CPQA INCLUDE ./nc
&GLOBAL
  PROJECT USPEX
  RUN_TYPE MD
  PRINT_LEVEL LOW
&END GLOBAL

&MOTION
  &MD
    ENSEMBLE NPT_I
    STEPS 50
    TIMESTEP 2.0
    TEMPERATURE 500
    &THERMOSTAT
      &NOSE
        LENGTH 3
        YOSHIDA 3
        TIMECON [wavenumber_t] 2000
        MTS 2
      &END NOSE
    &END
    &BAROSTAT
      PRESSURE 1.0
      TIMECON 300
    &END BAROSTAT
  &END MD
  &PRINT
    &TRAJECTORY
      LOG_PRINT_KEY T
      FORMAT  XYZ
      &EACH
         MD 1
      &END EACH
    &END TRAJECTORY
    &CELL
     &EACH 
       MD 1
     &END EACH
    &END CELL
    &RESTART OFF
    &END
    &RESTART_HISTORY OFF
    &END
  &END PRINT
&END MOTION

&FORCE_EVAL
  STRESS_TENSOR NUMERICAL
  &PRINT
     &FORCES
      &EACH
         MD 1
      &END EACH
     &END FORCES
  &END PRINT
  &DFT
    &QS
      METHOD DFTB
      &DFTB
        SELF_CONSISTENT    F
        DISPERSION         T
        ORTHOGONAL_BASIS   F
        DO_EWALD           T
        &PARAMETER
          PARAM_FILE_PATH   ./
          PARAM_FILE_NAME  nonscc_parameter
          UFF_FORCE_FIELD  ./uff_table
        &END PARAMETER
      &END DFTB
    &END QS
    &SCF
      SCF_GUESS NONE
      MAX_SCF  1
      &MIXING
          METHOD DIRECT_P_MIXING
          ALPHA   1.
      &END
    &END SCF
    &POISSON
      &EWALD
        EWALD_TYPE SPME
        GMAX 25
      &END EWALD
    &END POISSON
  &END DFT
  @INCLUDE 'subsys.uspex'
&END FORCE_EVAL
