EA5869  3.262  3.264  3.264 90.92 90.39 90.96 Sym.group:  160
1.0000
    3.262264     0.000000     0.000000
   -0.054957     3.263260     0.000000
   -0.022045    -0.052573     3.263801
   O   H
   1    4 
Direct
    0.752435     0.830141     0.380788
    0.248394     0.329972     0.878793
    0.724782     0.853890     0.068566
    0.723454     0.517644     0.404199
    0.065478     0.858156     0.407143
