EA48    6.527  3.872  5.842 85.51 95.62 99.17 Sym.group:    1
1.0000
    6.526761    -0.007995     0.029047
   -0.615125     3.764764     0.664916
   -0.598387    -0.647604     5.775149
  Si
   8 
Direct
    0.814673     0.299871     0.781030
    0.276835     0.933617     0.447727
    0.851506     0.176166     0.188922
    0.080464     0.372286     0.523938
    0.379149     0.560857     0.956830
    0.642471     0.624240     0.268020
    0.600735     0.771918     0.656111
    0.189191     0.000040     0.039773
