&CONTROL
  calculation = 'scf'
  forc_conv_thr =   1.0e-04
  nstep = 100
  outdir = './'
  prefix = 'test'
  pseudo_dir = '/home/itai/qe-7.2/pseudo/'
  tprnfor = .true.
  tstress = .true.
  verbosity = 'high'
/
&SYSTEM
  ibrav = 0
  degauss =   1.4699723600d-02
  ecutrho =   240
  ecutwfc =   25
  nat = 14
  nosym = .false.
  ntyp = 3
  occupations = 'smearing'
  smearing = 'cold'
/
&ELECTRONS
  conv_thr =   1.0000000000d-6
  electron_maxstep = 80
  mixing_beta =   0.4
/
ATOMIC_SPECIES
Mg     24.305 Mg.pbesol-n-kjpaw_psl.0.3.0.UPF
Al     26.981538 Al.pbesol-n-kjpaw_psl.1.0.0.UPF
O -1 O.pbesol-n-kjpaw_psl.1.0.0.UPF
CELL_PARAMETERS cubic
 10.0813   0.0000   0.0000
  0.0000  10.0813   0.0000
  0.0000   0.0000  14.4450
ATOMIC_POSITIONS {crystal} 
  Mg       0.016753     0.639287     0.715991
  Mg       0.983247     0.360713     0.715991
  Mg       0.639287     0.983247     0.284009
  Mg       0.360713     0.016753     0.284009
  Al       0.000000     0.500000     0.828983
  Al       0.500000     0.000000     0.171017
  Al       0.284262     0.638827     0.861215
  Al       0.715738     0.361173     0.861215
  Al       0.638827     0.715738     0.138785
  Al       0.361173     0.284262     0.138785
  Al       0.500000     0.500000     0.391889
  Al       0.500000     0.500000     0.608111
   O       0.257482     0.549572     0.435303
   O       0.742518     0.450428     0.435303
   O       0.549572     0.742518     0.564697
   O       0.450428     0.257482     0.564697
   O       0.750447     0.756842     0.415804
   O       0.249553     0.243158     0.415804
   O       0.756842     0.249553     0.584196
   O       0.243158     0.750447     0.584196
   O       0.268847     0.217354     0.859367
   O       0.731153     0.782646     0.859367
   O       0.217354     0.731153     0.140633
   O       0.782646     0.268847     0.140633
   O       0.400239     0.132189     0.604916
   O       0.599761     0.867811     0.604916
   O       0.132189     0.599761     0.395084
   O       0.867811     0.400239     0.395084
K_POINTS {automatic} 
   1    1    1  0 0 0
