&CONTROL
  calculation = 'scf'
  forc_conv_thr =   1.0e-04
  nstep = 100
  outdir = './'
  prefix = 'test'
  pseudo_dir = '/home/itai/qe-7.2/pseudo/'
  tprnfor = .true.
  tstress = .true.
  verbosity = 'high'
/
&SYSTEM
  ibrav = 0
  degauss =   1.4699723600d-02
  ecutrho =   240
  ecutwfc =   25
  nat = 14
  nosym = .false.
  ntyp = 3
  occupations = 'smearing'
  smearing = 'cold'
/
&ELECTRONS
  conv_thr =   1.0000000000d-6
  electron_maxstep = 80
  mixing_beta =   0.4
/
ATOMIC_SPECIES
Mg     24.305 Mg.pbesol-n-kjpaw_psl.0.3.0.UPF
Al     26.981538 Al.pbesol-n-kjpaw_psl.1.0.0.UPF
O -1 O.pbesol-n-kjpaw_psl.1.0.0.UPF
CELL_PARAMETERS cubic
 11.3818   0.0000   0.0000
  0.0000  11.3818   0.0000
  0.0000   0.0000  11.3324
ATOMIC_POSITIONS {crystal} 
  Mg       0.000000     0.050225     0.000000
  Mg       0.000000     0.949775     0.500000
  Mg       0.949775     0.000000     0.750000
  Mg       0.050225     0.000000     0.250000
  Al       0.255793     0.255793     0.625000
  Al       0.255793     0.744207     0.875000
  Al       0.744207     0.255793     0.375000
  Al       0.744207     0.744207     0.125000
  Al       0.000000     0.738350     0.000000
  Al       0.000000     0.261650     0.500000
  Al       0.261650     0.000000     0.750000
  Al       0.738350     0.000000     0.250000
   O       0.500000     0.906109     0.000000
   O       0.500000     0.093891     0.500000
   O       0.093891     0.500000     0.750000
   O       0.906109     0.500000     0.250000
   O       0.584642     0.410935     0.641761
   O       0.584642     0.589065     0.858239
   O       0.415358     0.410935     0.358239
   O       0.415358     0.589065     0.141761
   O       0.589065     0.415358     0.108239
   O       0.589065     0.584642     0.391761
   O       0.410935     0.415358     0.891761
   O       0.410935     0.584642     0.608239
   O       0.500000     0.161870     0.000000
   O       0.500000     0.838130     0.500000
   O       0.838130     0.500000     0.750000
   O       0.161870     0.500000     0.250000
K_POINTS {automatic} 
   1    1    1  0 0 0
