SYSTEM = GaN wurtzite
ISYM=0
ENCUT=300
PREC = LOW
NSW = 30
IBRION = 2
ISIF = 2
ISMEAR = 0
SIGMA = 0.10
LCHARG = FALSE
LWAVE = FALSE
LPLANE = .TRUE.
LREAL= Auto
ALGO = Fast
POTIM = 0.1
NPAR = 4
LMAXMIX =  4
