&CONTROL
  calculation = 'scf'
  forc_conv_thr =   1.0e-04
  nstep = 100
  outdir = './'
  prefix = 'test'
  pseudo_dir = '/home/itai/qe-7.2/pseudo/'
  tprnfor = .true.
  tstress = .true.
  verbosity = 'high'
/
&SYSTEM
  ibrav = 0
  degauss =   1.4699723600d-02
  ecutrho =   240
  ecutwfc =   25
  nat = 8
  nosym = .false.
  ntyp =2
  occupations = 'smearing'
  smearing = 'cold'
/
&ELECTRONS
  conv_thr =   1.0000000000d-6
  electron_maxstep = 80
  mixing_beta =   0.4
/
ATOMIC_SPECIES
Na -1 Na.pbesol-spnl-rrkjus_psl.1.0.0.UPF
Cl -1 Cl.pbesol-nl-rrkjus_psl.1.0.0.UPF
CELL_PARAMETERS cubic
 11.5082   0.0000   0.0000
  5.7541  11.6496   0.0000
 -5.7541  -0.0000  11.6496
ATOMIC_POSITIONS {crystal} 
  Na       0.575282     0.500000     0.500000
  Na       0.825282     0.000000     0.000000
  Na       0.174718     0.000000     0.000000
  Na       0.924718     0.500000     0.500000
  Cl       0.875000     0.750000     0.250000
  Cl       0.375000     0.250000     0.750000
  Cl       0.375000     0.250000     0.250000
  Cl       0.375000     0.750000     0.750000
K_POINTS {automatic} 
   3    2    2  0 0 0
