EA1051  4.632  4.291  4.850 91.51 90.33 97.82 Sym.group:    2
1.0000
    4.631849     0.000000     0.000000
   -0.583532     4.251360     0.000000
   -0.028056    -0.132674     4.847693
   C
  16 
Direct
    0.351404     0.135049     0.705841
    0.513139     0.135050     0.455705
    0.415415     0.644391     0.578774
    0.851404     0.135050     0.955842
    0.753679     0.644391     0.078910
    0.513138     0.135050     0.955706
    0.253678     0.644390     0.828910
    0.013139     0.135050     0.205705
    0.351402     0.135050     0.205842
    0.915415     0.644391     0.828774
    0.415414     0.644392     0.078774
    0.851402     0.135050     0.455842
    0.915414     0.644391     0.328775
    0.753678     0.644391     0.578910
    0.253678     0.644391     0.328911
    0.013139     0.135050     0.705705
