SYSTEM = Si-C
PREC = LOW
EDIFF = 3e-3
IBRION = 2
ISIF = 4
NSW = 55
ISMEAR = 1 ; SIGMA = 0.10
POTIM = 0.020
ISTART = 0
#Crude optimisation
EDIFFG = -2e-1
