SYSTEM = Si-C
PREC = Normal
ENCUT = 550.0
EDIFF = 1e-3
IBRION = 2
ISIF = 3
NSW = 45
ISMEAR = 1 ; SIGMA = 0.05
POTIM = 0.020
LCHARG = FALSE
LWAVE = FALSE
#Crude optimisation
EDIFFG = 1e-2

