#########################################################################################
#
#  Volker Blum, FHI 2008 : Test run input file control.in for simple H2O
#
#########################################################################################
#
#  Physical model
#
  xc                 blyp
##Specifies the exchange-correlation approach used for self-consistent
#pw-lda,pz-lda,vwn,vwn-gauss,am05,blyp,pbe,pbeint,pbesol,rpbe,revpbe,b3lyp,hse03,hse06,pbe0,pbesol0
  spin               none
  relativistic      atomic_zora scalar
##Specifies the level of relativistic treatment in the calculation.
  charge             0.
#
#  SCF convergence
# 
  occupation_type   gaussian  0.1 1
##Determines the broadening scheme used to find the Fermi level and occupy the Kohn-Sham eigenstates. 
  mixer              pulay
##Specifies the electron density mixing algorithm used to achieve fast and stable convergence towards the self-consistent solution
# linear or pulay
    n_max_pulay        10
##The number of past iterations that the pulay mixer uses for density mixing.
    charge_mix_param   0.3
##Parameter for simple linear mixing of electron densities of previous and present s.c.f. iterations
  sc_accuracy_rho    1E-4
##Convergence criterion for the self-consistency cycle, based on the charge density
  sc_accuracy_eev    1E-2
##Convergence criterion for the self-consistency cycle, based on the sum of eigenvalues.
##If value is set to zero or not given,the sum of eigenvalues will not be used as a convergence criterion
  sc_accuracy_etot   1E-3
#  sc_accuracy_forces 1E-4
  sc_iter_limit      500
#
#  Eigenvalue solution
   energy_tolerance 2E-3
##Sets the energy amount by which a relaxation step can move upwards and is still accepted.default=2E-4
   harmonic_length_scale  0.015
#default=0.025
#
  KS_method          lapack
##Algorithm used to solve the generalized eigenvalue problem Eq.
#scalapack,scalapack_fast,lapack_old,lapack,scalapack_old,svd,lopcg,lapack_fast,elpa
    empty_states       3
##Specifies how many Kohn-Sham states beyond the occupied levels are computed by the eigensolver.
##number is the integer number of empty Kohn-Sham states per atom to be computed beyond the occupied levels.
    basis_threshold    1.e-5
##Threshold to prevent any accidental ill-conditioning of the basis set.
##threshold is a small positive threshold for the eigenvalues of the overlap matrix.
#
#  Relaxation
#
   relax_geometry   bfgs 4.e-2
   restart_relaxations .true.
#  output mulliken
################################################################################
#
#  FHI-aims code project
# Volker Blum, Fritz Haber Institute Berlin, 2009
#
#  Suggested "tight" defaults for W atom (to be pasted into control.in file)
#
################################################################################
################################################################################
#
#  FHI-aims code project
# Volker Blum, Fritz Haber Institute Berlin, 2009
#
#  Suggested "tight" defaults for B atom (to be pasted into control.in file)
#
################################################################################
  species        B
#     global species definitions
    nucleus             5
    mass                10.811
#
    l_hartree           6
#
    cut_pot             4.0  2.0  1.0
    basis_dep_cutoff    1e-4
#
    radial_base         32 7.0
    radial_multiplier   2
    angular_grids       specified
      division   0.3742  110
      division   0.5197  194
      division   0.5753  302
      division   0.7664  434
#      division   0.8392  770
#      division   1.6522  974
#      outer_grid   974
      outer_grid  434
################################################################################
#
#  Definition of "minimal" basis
#
################################################################################
#     valence basis states
    valence      2  s   2.
    valence      2  p   1.
#     ion occupancy
    ion_occ      2  s   1.
################################################################################
#
#  Suggested additional basis functions. For production calculations, 
#  uncomment them one after another (the most important basis functions are
#  listed first).
#
#  Constructed for dimers: 1.25 A, 1.625 A, 2.5 A, 3.5 A
#
################################################################################
#  "First tier" - improvements: -710.52 meV to -92.39 meV
     hydro 2 p 1.4
     hydro 3 d 4.8
     hydro 2 s 4
#  "Second tier" - improvements: -33.88 meV to -2.20 meV
#     hydro 4 f 7.8
     hydro 3 p 4.2
     hydro 3 s 3.3
#     hydro 5 g 11.2
 #    hydro 3 d 5.4
#  "Third tier" - improvements: -1.28 meV to -0.36 meV
#     hydro 2 p 4.7
#     hydro 2 s 8.4
#     hydro 4 d 5.8
#  "Fourth tier" - improvements: -0.25 meV to -0.12 meV
#     hydro 3 p 2.2
#     hydro 3 s 3
#     hydro 4 f 9.8
#     hydro 5 g 12.8
#     hydro 4 d 10
#  Further functions
#     hydro 4 f 14
#     hydro 3 p 12.4
