SYSTEM = Si
PREC = LOW
EDIFF = 3e-3
IBRION = 2
ISIF = 2
NSW = 45
ISMEAR = 1 ; SIGMA = 0.10
POTIM = 0.020
ISTART = 0
#Crude optimisation
EDIFFG = -2e-1
LCHARG = FALSE
LWAVE = FALSE
