SYSTEM = Si
PREC = Normal
EDIFF = 1e-3
IBRION = 1
POTIM = 0.20
ISIF = 2
NSW = 45
ISMEAR = 1 ; SIGMA = 0.06
POTIM = 0.020
LCHARG = FALSE
LWAVE = FALSE
#Crude optimisation
EDIFFG = -4e-2

