PREC = Normal
ENCUT = 550.0
EDIFF = 1e-4
IBRION = 1
ISIF = 3
NSW = 90 
ISMEAR = 1 ; SIGMA = 0.020
POTIM = 0.20
ISTART = 0
LCHARG = FALSE
LWAVE = FALSE
EDIFFG = 1e-3

