PREC = Medium
EDIFF = 1e-3
IBRION = 1
ISIF = 4
NSW = 60
ISMEAR = 1 ; SIGMA = 0.05
POTIM = 0.20
LCHARG = FALSE
LWAVE = FALSE
EDIFFG = 4e-2

