PREC = Normal
EDIFF = 1e-3
ENCUT = 550.0
IBRION = 2
ISIF = 3
NSW = 70 
ISMEAR = 1 ; SIGMA = 0.050
POTIM = 0.020
ISTART = 0
LCHARG = FALSE
LWAVE = FALSE
EDIFFG = 1e-2

