PREC = Accurate 
ENCUT = 600.0
EDIFF = 1e-5
#IBRION = -1
#ISIF = 3
NSW = 0  
ISMEAR = 1 ; SIGMA = 0.020
POTIM = 0.10
ISTART = 0
LCHARG = FALSE
LWAVE = FALSE
EDIFFG = 1e-3

