SYSTEM = local optimisation
PREC = LOW
EDIFF = 1e-3
IBRION = 2
ISIF = 2
NSW = 65
ISMEAR = 1 ; SIGMA = 0.06
ISYM = 2
POTIM = 0.050
ISTART = 0
LCHARG = FALSE
LWAVE = FALSE
EDIFFG = -1e-2

