SYSTEM = local optimisation
PREC = Normal
EDIFF = 1e-3
IBRION = 2
ISIF = 4
NSW = 75
ISMEAR = 1 ; SIGMA = 0.060
POTIM = 0.050
ISYM = 2
ISTART = 0
LCHARG = FALSE
LWAVE = FALSE
EDIFFG = 1e-2
NPAR = 4

