SYSTEM = local optimisation
PREC = Normal
EDIFF = 1e-4
IBRION = 2
ISIF = 3
NSW = 90
ISMEAR = 1 ; SIGMA = 0.060
POTIM = 0.050
ISYM = 2
ISTART = 0
LCHARG = FALSE
LWAVE = FALSE
EDIFFG = 1e-3
NPAR = 4

