SYSTEM = local optimisation
PREC = Normal
ENCUT = 450.0
EDIFF = 1e-4
IBRION = 2
ISIF = 3
NSW = 15
ISMEAR = 1 ; SIGMA = 0.020
POTIM = 0.020
ISTART = 0
LCHARG = FALSE
LWAVE = FALSE
#Crude optimisation
EDIFFG = 1e-3

