# Created by Octave 4.2.2, Fri Feb 16 11:42:01 2024 JST <itai@itai-remote>
# name: ORG_STRUC
# type: scalar struct
# ndims: 2
 1 1
# length: 138
# name: tournament
# type: matrix
# rows: 0
# columns: 0


# name: dimension
# type: scalar
3


# name: varcomp
# type: scalar
0


# name: molecule
# type: scalar
0


# name: PhaseDiagram
# type: scalar
0


# name: maxErrors
# type: scalar
2


# name: numProcessors
# type: scalar
8


# name: numParallelCalcs
# type: scalar
1


# name: pluginType
# type: scalar
0


# name: currentGenDone
# type: scalar
0


# name: startNextGen
# type: scalar
1


# name: stopCrit
# type: scalar
30


# name: reoptOld
# type: scalar
0


# name: bestFrac
# type: scalar
0.6


# name: repeatForStatistics
# type: scalar
1


# name: fracGene
# type: scalar
0.5


# name: fracRand
# type: scalar
0.2


# name: fracPerm
# type: scalar
0.1


# name: fracLatMut
# type: scalar
0


# name: fracRotMut
# type: scalar
0


# name: fracAtomsMut
# type: scalar
0.2


# name: AutoFrac
# type: scalar
1


# name: stopFitness
# type: matrix
# rows: 0
# columns: 0


# name: howManyAtomMutations
# type: matrix
# rows: 0
# columns: 0


# name: howManyRand
# type: matrix
# rows: 0
# columns: 0


# name: topologyRandom
# type: scalar
0


# name: coordinatingNumbers
# type: sq_string
# elements: 1
# length: 4
NONE


# name: howManyOffsprings
# type: matrix
# rows: 0
# columns: 0


# name: maxDistHeredity
# type: scalar
0.5


# name: minSlice
# type: scalar
2


# name: maxSlice
# type: scalar
8


# name: percSliceShift
# type: scalar
1


# name: softMutOnly
# type: matrix
# rows: 61
# columns: 1
 0
 0
 0
 0
 0
 0
 0
 0
 0
 0
 0
 0
 0
 0
 0
 0
 0
 0
 0
 0
 0
 0
 0
 0
 0
 0
 0
 0
 0
 0
 0
 0
 0
 0
 0
 0
 0
 0
 0
 0
 0
 0
 0
 0
 0
 0
 0
 0
 0
 0
 0
 0
 0
 0
 0
 0
 0
 0
 0
 0
 0


# name: softMutTill
# type: scalar
60


# name: chargeNeutrality
# type: scalar
0


# name: checkConnectivity
# type: scalar
0


# name: howManyMut
# type: scalar
3.28


# name: valences
# type: matrix
# rows: 1
# columns: 3
 2 3 2


# name: NvalElectrons
# type: matrix
# rows: 1
# columns: 3
 2 3 6


# name: goodBonds
# type: matrix
# rows: 3
# columns: 3
 0.1 0.1414213562373095 0.1732050807568877
 0.1414213562373095 0.2 0.2449489742783178
 0.1732050807568877 0.2449489742783178 0.3


# name: mutationRate
# type: scalar
0.5


# name: howManyPermutations
# type: matrix
# rows: 0
# columns: 0


# name: howManySwaps
# type: scalar
2


# name: specificSwaps
# type: scalar
0


# name: fracSecSwitch
# type: matrix
# rows: 0
# columns: 0


# name: howManySecSwitch
# type: matrix
# rows: 0
# columns: 0


# name: fracShiftBorder
# type: matrix
# rows: 0
# columns: 0


# name: howManyShiftBorder
# type: matrix
# rows: 0
# columns: 0


# name: abinitioCode
# type: scalar
8


# name: Kresol
# type: scalar
0.2


# name: commandExecutable
# type: cell
# rows: 1
# columns: 1
# name: <cell-element>
# type: sq_string
# elements: 1
# length: 21
pw.x < qe.in > output





# name: remoteFolder
# type: sq_string
# elements: 1
# length: 0



# name: platform
# type: scalar
0


# name: ExternalPressure
# type: scalar
100


# name: latVolume
# type: scalar
217.56


# name: lattice
# type: matrix
# rows: 0
# columns: 0


# name: constLattice
# type: scalar
0


# name: splitInto
# type: scalar
0


# name: homePath
# type: sq_string
# elements: 1
# length: 41
/home/itai/USPEX-9.4.4/data/tutorial/EX02


# name: USPEXPath
# type: sq_string
# elements: 1
# length: 26
/home/itai/USPEX-9.4.4/src


# name: specificFolder
# type: sq_string
# elements: 1
# length: 8
Specific


# name: log_file
# type: sq_string
# elements: 1
# length: 10
OUTPUT.txt


# name: atomType
# type: matrix
# rows: 1
# columns: 3
 12 13 8


# name: numIons
# type: matrix
# rows: 1
# columns: 3
 4 8 16


# name: averageFitness
# type: scalar
1000000


# name: correlation_coefficient
# type: scalar
1


# name: antiSeedsMax
# type: scalar
0


# name: antiSeedsSigma
# type: scalar
0.001


# name: ordering
# type: scalar
1


# name: antiSeedsActivation
# type: scalar
5000


# name: optType
# type: scalar
1


# name: opt_sign
# type: scalar
1


# name: cor_dir
# type: scalar
1


# name: RmaxFing
# type: scalar
10


# name: deltaFing
# type: scalar
0.08


# name: sigmaFing
# type: scalar
0.03


# name: doFing
# type: scalar
1


# name: toleranceFing
# type: scalar
0.008


# name: toleranceBestHM
# type: scalar
0.02


# name: dynamicalBestHM
# type: scalar
2


# name: keepBestHM
# type: scalar
6


# name: alpha
# type: scalar
-1


# name: erf_table
# type: matrix
# rows: 803
# columns: 1
 -0.9999999858030606
 -0.9999999845827421
 -0.9999999832607886
 -0.9999999818290218
 -0.9999999802786297
 -0.9999999786001196
 -0.9999999767832678
 -0.9999999748170655
 -0.9999999726896611
 -0.9999999703882987
 -0.9999999678992515
 -0.9999999652077514
 -0.9999999622979134
 -0.9999999591526549
 -0.9999999557536089
 -0.9999999520810322
 -0.9999999481137066
 -0.9999999438288335
 -0.9999999392019217
 -0.999999934206667
 -0.9999999288148248
 -0.9999999229960725
 -0.9999999167178646
 -0.9999999099452764
 -0.9999999026408388
 -0.9999998947643612
 -0.9999998862727434
 -0.9999998771197746
 -0.9999998672559197
 -0.9999998566280922
 -0.9999998451794108
 -0.9999998328489421
 -0.9999998195714259
 -0.9999998052769828
 -0.9999997898908038
 -0.9999997733328196
 -0.9999997555173494
 -0.9999997363527274
 -0.999999715740906
 -0.9999996935770344
 -0.9999996697490109
 -0.999999644137007
 -0.9999996166129631
 -0.9999995870400529
 -0.9999995552721145
 -0.9999995211530479
 -0.9999994845161754
 -0.9999994451835634
 -0.999999402965304
 -0.9999993576587528
 -0.9999993090477225
 -0.9999992569016276
 -0.9999992009745795
 -0.9999991410044279
 -0.9999990767117464
 -0.9999990077987595
 -0.9999989339482065
 -0.999998854822141
 -0.9999987700606605
 -0.9999986792805643
 -0.9999985820739345
 -0.9999984780066371
 -0.9999983666167385
 -0.9999982474128332
 -0.9999981198722784
 -0.9999979834393308
 -0.9999978375231799
 -0.9999976814958739
 -0.9999975146901312
 -0.9999973363970344
 -0.9999971458635974
 -0.9999969422902035
 -0.9999967248279045
 -0.9999964925755764
 -0.9999962445769252
 -0.999995979817332
 -0.9999956972205363
 -0.9999953956451422
 -0.9999950738809457
 -0.9999947306450711
 -0.9999943645779092
 -0.9999939742388483
 -0.9999935581017861
 -0.9999931145504183
 -0.9999926418732864
 -0.999992138258581
 -0.9999916017886847
 -0.9999910304344467
 -0.9999904220491745
 -0.9999897743623337
 -0.9999890849729398
 -0.9999883513426328
 -0.9999875707884177
 -0.9999867404750594
 -0.9999858574071167
 -0.9999849184206001
 -0.9999839201742399
 -0.999982859140346
 -0.9999817315952467
 -0.9999805336092856
 -0.9999792610363629
 -0.9999779095030014
 -0.9999764743969194
 -0.9999749508550908
 -0.9999733337512747
 -0.9999716176829931
 -0.9999697969579359
 -0.999967865579774
 -0.9999658172333573
 -0.9999636452692755
 -0.9999613426877595
 -0.9999589021219005
 -0.9999563158201618
 -0.9999535756281589
 -0.9999506729696856
 -0.9999475988269556
 -0.9999443437200386
 -0.999940897685461
 -0.9999372502539452
 -0.9999333904272599
 -0.9999293066541523
 -0.9999249868053346
 -0.9999204181474947
 -0.9999155873163016
 -0.9999104802883753
 -0.9999050823521899
 -0.9998993780778803
 -0.9998933512859194
 -0.9998869850146334
 -0.9998802614865254
 -0.9998731620733717
 -0.9998656672600594
 -0.9998577566071316
 -0.9998494087120056
 -0.9998406011688324
 -0.9998313105269613
 -0.999821512247976
 -0.9998111806612685
 -0.9998002889181156
 -0.9997888089442238
 -0.9997767113907082
 -0.9997639655834707
 -0.9997505394709432
 -0.9997363995701628
 -0.9997215109111428
 -0.9997058369795081
 -0.9996893396573608
 -0.9996719791623431
 -0.9996537139848648
 -0.9996345008234653
 -0.9996142945182758
 -0.999593047982555
 -0.9995707121322661
 -0.9995472358136659
 -0.9995225657288812
 -0.999496646359442
 -0.999469419887749
 -0.9994408261164486
 -0.9994108023856942
 -0.9993792834882711
 -0.9993462015825646
 -0.999311486103355
 -0.9992750636704192
 -0.9992368579949287
 -0.9991967897836264
 -0.9991547766407751
 -0.9991107329678676
 -0.9990645698610919
 -0.9990161950065498
 -0.998965512573224
 -0.9989124231037001
 -0.9988568234026434
 -0.9987986064230412
 -0.998737661150219
 -0.9986738724836454
 -0.9986071211165418
 -0.9985372834133188
 -0.9984642312848625
 -0.9983878320616982
 -0.9983079483650648
 -0.9982244379759344
 -0.9981371537020182
 -0.9980459432428015
 -0.9979506490526588
 -0.9978511082021002
 -0.9977471522372077
 -0.9976386070373253
 -0.9975252926710697
 -0.9974070232507334
 -0.9972836067851606
 -0.9971548450311778
 -0.997020533343667
 -0.9968804605243777
 -0.9967344086695764
 -0.9965821530166384
 -0.996423461789696
 -0.9962580960444569
 -0.9960858095123195
 -0.995906348443912
 -0.995719451452192
 -0.9955248493552482
 -0.9953222650189527
 -0.995111413199617
 -0.9948920003868136
 -0.9946637246465299
 -0.9944262754648279
 -0.9941793335921891
 -0.9939225708887325
 -0.9936556501704964
 -0.9933782250569848
 -0.9930899398201835
 -0.9927904292352575
 -0.992479318433148
 -0.9921562227552937
 -0.9918207476107067
 -0.9914724883356396
 -0.9911110300560857
 -0.9907359475533626
 -0.9903468051330306
 -0.9899431564974076
 -0.9895245446219444
 -0.9890905016357308
 -0.9886405487064082
 -0.9881741959297683
 -0.9876909422243223
 -0.9871902752311301
 -0.9866716712191824
 -0.9861345949966329
 -0.9855784998281805
 -0.9850028273589058
 -0.9844070075448683
 -0.9837904585907745
 -0.9831525868950262
 -0.9824927870024648
 -0.9818104415651265
 -0.9811049213113221
 -0.9803755850233603
 -0.979621779524232
 -0.9788428396735701
 -0.9780380883732035
 -0.9772068365826186
 -0.976348383344644
 -0.9754620158216677
 -0.9745470093426969
 -0.9736026274615671
 -0.9726281220266002
 -0.9716227332620125
 -0.9705856898613637
 -0.9695162090933357
 -0.9684134969201231
 -0.9672767481287117
 -0.9661051464753108
 -0.9648978648432042
 -0.9636540654142689
 -0.9623728998544058
 -0.9610535095131181
 -0.9596950256374592
 -0.9582965696005648
 -0.9568572531449688
 -0.9553761786408962
 -0.9538524393597054
 -0.9522851197626487
 -0.9506732958050965
 -0.9490160352563626
 -0.947312398035252
 -0.9455614365614331
 -0.9437621961227241
 -0.9419137152583653
 -0.9400150261583302
 -0.9380651550787114
 -0.9360631227731995
 -0.9340079449406524
 -0.9318986326887336
 -0.9297341930135782
 -0.9275136292954247
 -0.9252359418101295
 -0.9229001282564582
 -0.9205051842990297
 -0.9180501041267614
 -0.9155338810266468
 -0.9129555079726694
 -0.9103139782296353
 -0.907608285971685
 -0.9048374269152168
 -0.9020003989659356
 -0.899096202879712
 -0.8961238429369149
 -0.8930823276298567
 -0.8899706703629623
 -0.8867878901652547
 -0.883533012414718
 -0.8802050695740817
 -0.8768031019375383
 -0.8733261583878896
 -0.8697732971635866
 -0.8661435866351082
 -0.8624361060900967
 -0.8586499465266515
 -0.8547842114541484
 -0.850838017700942
 -0.8468104962282768
 -0.8427007929497149
 -0.8385080695553698
 -0.8342315043402079
 -0.8298702930356671
 -0.8254236496438182
 -0.8208908072732779
 -0.8162710189760625
 -0.8115635585845578
 -0.8067677215477617
 -0.8018828257659413
 -0.7969082124228322
 -0.7918432468144954
 -0.7866873191739325
 -0.7814398454905507
 -0.7761002683235567
 -0.7706680576083526
 -0.7651427114549946
 -0.759523756937773
 -0.7538107508749625
 -0.7480032805977895
 -0.7421009647076605
 -0.7361034538206911
 -0.7300104312985788
 -0.7238216139648593
 -0.7175367528055908
 -0.7111556336535151
 -0.7046780778547458
 -0.6981039429170445
 -0.6914331231387512
 -0.6846655502174442
 -0.6778011938374184
 -0.6708400622350777
 -0.663782202741358
 -0.6566277023003051
 -0.6493766879629542
 -0.6420293273556719
 -0.6345858291221413
 -0.6270464433381957
 -0.6194114618987212
 -0.6116812188758802
 -0.6038560908479259
 -0.5959364971979085
 -0.5879229003816007
 -0.579815806163996
 -0.5716157638237684
 -0.563323366325109
 -0.5549392504563903
 -0.5464640969351418
 -0.5378986304788544
 -0.5292436198411704
 -0.5204998778130465
 -0.511668261188523
 -0.5027496706947648
 -0.4937450508860821
 -0.4846553900016797
 -0.4754817197869237
 -0.4662251152779575
 -0.4568866945495403
 -0.4474676184260253
 -0.4379690901554395
 -0.4283923550466684
 -0.4187387000697961
 -0.409009453419694
 -0.3992059840429992
 -0.3893297011286642
 -0.3793820535623103
 -0.3693645293446586
 -0.359278654974359
 -0.3491259947955828
 -0.3389081503107902
 -0.3286267594591274
 -0.3182834958609522
 -0.3078800680290341
 -0.2974182185470128
 -0.2868997232157491
 -0.2763263901682369
 -0.265700058953792
 -0.2550225995922732
 -0.2442959115991287
 -0.2335219229821036
 -0.2227025892104785
 -0.2118398921577497
 -0.2009358390186958
 -0.1899924612018088
 -0.1790118131981057
 -0.1679959714273635
 -0.1569470330628558
 -0.1458671148356958
 -0.1347583518199201
 -0.1236228961994743
 -0.1124629160182849
 -0.1012805939146269
 -0.09007812584101817
 -0.07885771977089075
 -0.06762159439330843
 -0.05637197779701663
 -0.04511110614512475
 -0.03384122234173543
 -0.02256457469184494
 -0.01128341555584962
 0
 0.01128341555584962
 0.02256457469184494
 0.03384122234173543
 0.04511110614512475
 0.05637197779701663
 0.06762159439330843
 0.07885771977089075
 0.09007812584101817
 0.1012805939146269
 0.1124629160182849
 0.1236228961994743
 0.1347583518199201
 0.1458671148356958
 0.1569470330628558
 0.1679959714273635
 0.1790118131981057
 0.1899924612018088
 0.2009358390186958
 0.2118398921577497
 0.2227025892104785
 0.2335219229821036
 0.2442959115991287
 0.2550225995922732
 0.265700058953792
 0.2763263901682369
 0.2868997232157491
 0.2974182185470128
 0.3078800680290341
 0.3182834958609522
 0.3286267594591274
 0.3389081503107902
 0.3491259947955828
 0.359278654974359
 0.3693645293446586
 0.3793820535623103
 0.3893297011286642
 0.3992059840429992
 0.409009453419694
 0.4187387000697961
 0.4283923550466684
 0.4379690901554395
 0.4474676184260253
 0.4568866945495403
 0.4662251152779575
 0.4754817197869237
 0.4846553900016797
 0.4937450508860821
 0.5027496706947648
 0.511668261188523
 0.5204998778130465
 0.5292436198411704
 0.5378986304788544
 0.5464640969351418
 0.5549392504563903
 0.563323366325109
 0.5716157638237684
 0.579815806163996
 0.5879229003816007
 0.5959364971979085
 0.6038560908479259
 0.6116812188758802
 0.6194114618987212
 0.6270464433381957
 0.6345858291221413
 0.6420293273556719
 0.6493766879629542
 0.6566277023003051
 0.663782202741358
 0.6708400622350777
 0.6778011938374184
 0.6846655502174442
 0.6914331231387512
 0.6981039429170445
 0.7046780778547458
 0.7111556336535151
 0.7175367528055908
 0.7238216139648593
 0.7300104312985788
 0.7361034538206911
 0.7421009647076605
 0.7480032805977895
 0.7538107508749625
 0.759523756937773
 0.7651427114549946
 0.7706680576083526
 0.7761002683235567
 0.7814398454905507
 0.7866873191739325
 0.7918432468144954
 0.7969082124228322
 0.8018828257659413
 0.8067677215477617
 0.8115635585845578
 0.8162710189760625
 0.8208908072732779
 0.8254236496438182
 0.8298702930356671
 0.8342315043402079
 0.8385080695553698
 0.8427007929497149
 0.8468104962282768
 0.850838017700942
 0.8547842114541484
 0.8586499465266515
 0.8624361060900967
 0.8661435866351082
 0.8697732971635866
 0.8733261583878896
 0.8768031019375383
 0.8802050695740817
 0.883533012414718
 0.8867878901652547
 0.8899706703629623
 0.8930823276298567
 0.8961238429369149
 0.899096202879712
 0.9020003989659356
 0.9048374269152168
 0.907608285971685
 0.9103139782296353
 0.9129555079726694
 0.9155338810266468
 0.9180501041267614
 0.9205051842990297
 0.9229001282564582
 0.9252359418101295
 0.9275136292954247
 0.9297341930135782
 0.9318986326887336
 0.9340079449406524
 0.9360631227731995
 0.9380651550787114
 0.9400150261583302
 0.9419137152583653
 0.9437621961227241
 0.9455614365614331
 0.947312398035252
 0.9490160352563626
 0.9506732958050965
 0.9522851197626487
 0.9538524393597054
 0.9553761786408962
 0.9568572531449688
 0.9582965696005648
 0.9596950256374592
 0.9610535095131181
 0.9623728998544058
 0.9636540654142689
 0.9648978648432042
 0.9661051464753108
 0.9672767481287117
 0.9684134969201231
 0.9695162090933357
 0.9705856898613637
 0.9716227332620125
 0.9726281220266002
 0.9736026274615671
 0.9745470093426969
 0.9754620158216677
 0.976348383344644
 0.9772068365826186
 0.9780380883732035
 0.9788428396735701
 0.979621779524232
 0.9803755850233603
 0.9811049213113221
 0.9818104415651265
 0.9824927870024648
 0.9831525868950262
 0.9837904585907745
 0.9844070075448683
 0.9850028273589058
 0.9855784998281805
 0.9861345949966329
 0.9866716712191824
 0.9871902752311301
 0.9876909422243223
 0.9881741959297683
 0.9886405487064082
 0.9890905016357308
 0.9895245446219444
 0.9899431564974076
 0.9903468051330306
 0.9907359475533626
 0.9911110300560857
 0.9914724883356396
 0.9918207476107067
 0.9921562227552937
 0.992479318433148
 0.9927904292352575
 0.9930899398201835
 0.9933782250569848
 0.9936556501704964
 0.9939225708887325
 0.9941793335921891
 0.9944262754648279
 0.9946637246465299
 0.9948920003868136
 0.995111413199617
 0.9953222650189527
 0.9955248493552482
 0.995719451452192
 0.995906348443912
 0.9960858095123195
 0.9962580960444569
 0.996423461789696
 0.9965821530166384
 0.9967344086695764
 0.9968804605243777
 0.997020533343667
 0.9971548450311778
 0.9972836067851606
 0.9974070232507334
 0.9975252926710697
 0.9976386070373253
 0.9977471522372077
 0.9978511082021002
 0.9979506490526588
 0.9980459432428015
 0.9981371537020182
 0.9982244379759344
 0.9983079483650648
 0.9983878320616982
 0.9984642312848625
 0.9985372834133188
 0.9986071211165418
 0.9986738724836454
 0.998737661150219
 0.9987986064230412
 0.9988568234026434
 0.9989124231037001
 0.998965512573224
 0.9990161950065498
 0.9990645698610919
 0.9991107329678676
 0.9991547766407751
 0.9991967897836264
 0.9992368579949287
 0.9992750636704192
 0.999311486103355
 0.9993462015825646
 0.9993792834882711
 0.9994108023856942
 0.9994408261164486
 0.999469419887749
 0.999496646359442
 0.9995225657288812
 0.9995472358136659
 0.9995707121322661
 0.999593047982555
 0.9996142945182758
 0.9996345008234653
 0.9996537139848648
 0.9996719791623431
 0.9996893396573608
 0.9997058369795081
 0.9997215109111428
 0.9997363995701628
 0.9997505394709432
 0.9997639655834707
 0.9997767113907082
 0.9997888089442238
 0.9998002889181156
 0.9998111806612685
 0.999821512247976
 0.9998313105269613
 0.9998406011688324
 0.9998494087120056
 0.9998577566071316
 0.9998656672600594
 0.9998731620733717
 0.9998802614865254
 0.9998869850146334
 0.9998933512859194
 0.9998993780778803
 0.9999050823521899
 0.9999104802883753
 0.9999155873163016
 0.9999204181474947
 0.9999249868053346
 0.9999293066541523
 0.9999333904272599
 0.9999372502539452
 0.999940897685461
 0.9999443437200386
 0.9999475988269556
 0.9999506729696856
 0.9999535756281589
 0.9999563158201618
 0.9999589021219005
 0.9999613426877595
 0.9999636452692755
 0.9999658172333573
 0.999967865579774
 0.9999697969579359
 0.9999716176829931
 0.9999733337512747
 0.9999749508550908
 0.9999764743969194
 0.9999779095030014
 0.9999792610363629
 0.9999805336092856
 0.9999817315952467
 0.999982859140346
 0.9999839201742399
 0.9999849184206001
 0.9999858574071167
 0.9999867404750594
 0.9999875707884177
 0.9999883513426328
 0.9999890849729398
 0.9999897743623337
 0.9999904220491745
 0.9999910304344467
 0.9999916017886847
 0.999992138258581
 0.9999926418732864
 0.9999931145504183
 0.9999935581017861
 0.9999939742388483
 0.9999943645779092
 0.9999947306450711
 0.9999950738809457
 0.9999953956451422
 0.9999956972205363
 0.999995979817332
 0.9999962445769252
 0.9999964925755764
 0.9999967248279045
 0.9999969422902035
 0.9999971458635974
 0.9999973363970344
 0.9999975146901312
 0.9999976814958739
 0.9999978375231799
 0.9999979834393308
 0.9999981198722784
 0.9999982474128332
 0.9999983666167385
 0.9999984780066371
 0.9999985820739345
 0.9999986792805643
 0.9999987700606605
 0.999998854822141
 0.9999989339482065
 0.9999990077987595
 0.9999990767117464
 0.9999991410044279
 0.9999992009745795
 0.9999992569016276
 0.9999993090477225
 0.9999993576587528
 0.999999402965304
 0.9999994451835634
 0.9999994845161754
 0.9999995211530479
 0.9999995552721145
 0.9999995870400529
 0.9999996166129631
 0.999999644137007
 0.9999996697490109
 0.9999996935770344
 0.999999715740906
 0.9999997363527274
 0.9999997555173494
 0.9999997733328196
 0.9999997898908038
 0.9999998052769828
 0.9999998195714259
 0.9999998328489421
 0.9999998451794108
 0.9999998566280922
 0.9999998672559197
 0.9999998771197746
 0.9999998862727434
 0.9999998947643612
 0.9999999026408388
 0.9999999099452764
 0.9999999167178646
 0.9999999229960725
 0.9999999288148248
 0.999999934206667
 0.9999999392019217
 0.9999999438288335
 0.9999999481137066
 0.9999999520810322
 0.9999999557536089
 0.9999999591526549
 0.9999999622979134
 0.9999999652077514
 0.9999999678992515
 0.9999999703882987
 0.9999999726896611
 0.9999999748170655
 0.9999999767832678
 0.9999999786001196
 0.9999999802786297
 0.9999999818290218
 0.9999999832607886
 0.9999999845827421
 0.9999999858030606


# name: weight
# type: matrix
# rows: 9
# columns: 1
 0.02040816326530612
 0.04081632653061224
 0.08163265306122448
 0.04081632653061224
 0.08163265306122448
 0.163265306122449
 0.08163265306122448
 0.163265306122449
 0.3265306122448979


# name: numMols
# type: matrix
# rows: 0
# columns: 0


# name: STDMOL
# type: matrix
# rows: 0
# columns: 0


# name: checkMolecules
# type: scalar
1


# name: thicknessS
# type: scalar
2


# name: thicknessB
# type: scalar
3


# name: bulk_lat
# type: matrix
# rows: 0
# columns: 0


# name: bulk_pos
# type: matrix
# rows: 0
# columns: 0


# name: bulk_ntyp
# type: matrix
# rows: 0
# columns: 0


# name: bulk_atyp
# type: matrix
# rows: 0
# columns: 0


# name: reconstruct
# type: scalar
1


# name: bulk_stoi
# type: matrix
# rows: 0
# columns: 0


# name: E_AB
# type: matrix
# rows: 0
# columns: 0


# name: E_A
# type: matrix
# rows: 0
# columns: 0


# name: E_B
# type: matrix
# rows: 0
# columns: 0


# name: vacuumSize
# type: scalar
10


# name: numParents
# type: scalar
2


# name: manyParents
# type: scalar
0


# name: firstGeneSplit
# type: scalar
1


# name: firstGeneSplitAll
# type: scalar
1


# name: splitN
# type: scalar
1


# name: minAt
# type: scalar
28


# name: maxAt
# type: scalar
28


# name: firstGeneMax
# type: matrix
# rows: 0
# columns: 0


# name: howManyTrans
# type: matrix
# rows: 0
# columns: 0


# name: fracTrans
# type: scalar
0


# name: specificTrans
# type: scalar
0


# name: doSpaceGroup
# type: scalar
1


# name: nsym
# type: matrix
# rows: 1
# columns: 230
 0 1 1 1 1 1 1 1 1 1 1 1 1 1 1 1 1 1 1 1 1 1 1 1 1 1 1 1 1 1 1 1 1 1 1 1 1 1 1 1 1 1 1 1 1 1 1 1 1 1 1 1 1 1 1 1 1 1 1 1 1 1 1 1 1 1 1 1 1 1 1 1 1 1 1 1 1 1 1 1 1 1 1 1 1 1 1 1 1 1 1 1 1 1 1 1 1 1 1 1 1 1 1 1 1 1 1 1 1 1 1 1 1 1 1 1 1 1 1 1 1 1 1 1 1 1 1 1 1 1 1 1 1 1 1 1 1 1 1 1 1 1 1 1 1 1 1 1 1 1 1 1 1 1 1 1 1 1 1 1 1 1 1 1 1 1 1 1 1 1 1 1 1 1 1 1 1 1 1 1 1 1 1 1 1 1 1 1 1 1 1 1 1 1 1 1 1 1 1 1 1 1 1 1 1 1 1 1 1 1 1 1 1 1 1 1 1 1 1 1 1 1 1 1 1 1 1 1 1 1


# name: nsymN
# type: matrix
# rows: 1
# columns: 2
 0 0


# name: sym_coef
# type: scalar
1


# name: symmetrize
# type: scalar
0


# name: SGtolerance
# type: scalar
0.05


# name: pickUpYN
# type: scalar
0


# name: pickUpGen
# type: scalar
1


# name: pickUpFolder
# type: scalar
1


# name: pickUpNCount
# type: scalar
0


# name: minAngle
# type: scalar
55


# name: minDiagAngle
# type: scalar
30


# name: minDistMatrice
# type: matrix
# rows: 3
# columns: 3
 0.8968117643299879 0.8829952687714983 0.8046213810296362
 0.8829952687714983 0.8691787732130088 0.7908048854711467
 0.8046213810296362 0.7908048854711467 0.7124309977292845


# name: CenterminDistMatrice
# type: matrix
# rows: 0
# columns: 0


# name: minVectorLength
# type: scalar
2.538


# name: numGenerations
# type: scalar
60


# name: populationSize
# type: scalar
40


# name: initialPopSize
# type: scalar
40


# name: ldaU
# type: matrix
# rows: 1
# columns: 3
 0 0 0


# name: fixRndSeed
# type: scalar
0


# name: collectForces
# type: scalar
0


# name: remote
# type: scalar
0


# name: mlPeerFilter
# type: scalar
0


# name: resFolder
# type: sq_string
# elements: 1
# length: 8
results1


# name: magRatio
# type: matrix
# rows: 1
# columns: 7
 0.1 0.225 0.225 0.225 0.225 0 0


# name: mlMinPopulation
# type: scalar
128


# name: pickedUP
# type: scalar
0


# name: wrong_spacegroups
# type: scalar
5




