EA0 4.38797 6.11274 4.2088 90 90.000 90
1.0
4.3880 0.0000 0.0000
0.0000 6.1127 0.0000
0.0000 0.0000 4.2088
 Mg  Si  O
  4   4  12
Direct
0.922559 0.75 0.0193497
0.529606 0.25 0.519299
0.422542 0.75 0.541562
0.0296167 0.25 0.0415651
0.476082 1.7e-06 0.0304318
0.97607 3.3e-06 0.530456
0.97607 0.499996 0.530455
0.476081 0.499998 0.0304317
0.024145 0.75 0.413678
0.284619 0.0603701 0.34681
0.42795 0.25 0.913562
0.167518 0.939626 0.846836
0.524196 0.75 0.147306
0.784628 0.43962 0.21406
0.927953 0.25 0.647306
0.667506 0.560368 0.71406
0.667507 0.939631 0.71406
0.784628 0.0603794 0.21406
0.167518 0.560374 0.846835
0.284619 0.43963 0.34681

